0 366 503
1 203 90
2 393 8
3 487 34
4 303 350
5 140 1
6 106 299
7 69 31
8 557 116
9 145 189
10 8 155
11 384 20
12 81 143
13 70 493
14 244 76
15 260 551
16 79 389
17 525 187
18 116 384
19 284 285
20 302 55
21 88 37
22 329 747
23 603 44
24 57 184
25 852 247
26 367 378
27 216 338
28 381 284
29 722 55
30 68 239
31 439 522
32 263 63